c Output_time 26.03.2020 18:13:12_+0100 1585242792265870278
c ** Program information **
c program_name                          "QBRG_debug"
c version                               "0.3.20"
c date                                  "25.3.2020"
c gid_id                                "673970833836058123f633335630c185360d632e"
c author                                "Oliver Kullmann"
c url                                   "https://github.com/OKullmann/oklibrary/blob/master/Satisfiability/Transformers/Generators/Random/QBRG.cpp"
c ** Machine information **
c machine_name                          "chyna-Lenovo-G50-70"
c bogomips                              3791.08
c ** Compilation information **
c compiler_version                      "g++ 7.5.0"
c compilation_date                      "Mar_26_2020 11:16:30"
c compilation_options                   "--std=c++17 -pedantic -fmax-errors=5 -Wall -Wextra -g -D_GLIBCXX_DEBUG"
c NDEBUG                                0
c OPTIMIZE                              0
c ** Parameters **
c command-line                          "./QBRG_debug" "e40 a40 40" "246*1,1|2-2,1|3-3,1" "" "1,t" ""
c output                                "QuBlRaGe_120_246_1585242792254982410.qdimacs"
c options                               "filtered,renamed"
c num_quantifier_blocks                 3
c  quantifier_blocks                    1:e1-40 2:a41-80 3:e81-120
c num_clause-blocks                     1
c  clause-blocks                        246 * {1-40,1,1/2} | {41-80,1,1/2} | {81-120,1,1/2}
c num_e-seeds                           30+2=32
c  e-seeds                              1 0 1 0 4 120 2 40 1 40 0 40 1 246 3 1 1 1 1 2 2 2 1 1 2 3 3 1 1 2 1 1585242792254981886
p cnf 120 246
e 1 2 3 4 5 6 7 8 9 10 11 12 13 14 15 16 17 18 19 20 21 22 23 24 25 26 27 28 29 30 31 32 33 34 35 36 37 38 39 40 0
a 41 42 43 44 45 46 47 48 49 50 51 52 53 54 55 56 57 58 59 60 61 62 63 64 65 66 67 68 69 70 71 72 73 74 75 76 77 78 79 80 0
e 81 82 83 84 85 86 87 88 89 90 91 92 93 94 95 96 97 98 99 100 101 102 103 104 105 106 107 108 109 110 111 112 113 114 115 116 117 118 119 120 0
-40 50 -81 0
20 -53 -81 0
29 76 -81 0
10 66 81 0
-20 -41 -82 0
32 42 -82 0
5 -52 -82 0
-21 57 -82 0
34 66 -82 0
23 46 82 0
18 52 82 0
4 -55 -83 0
-33 -55 -83 0
26 55 -83 0
-9 -61 -83 0
16 -73 -83 0
28 -42 83 0
16 59 83 0
-15 65 83 0
28 76 83 0
25 44 -84 0
-18 47 -84 0
23 76 -84 0
-19 -47 84 0
-39 -51 84 0
-31 -52 84 0
28 67 84 0
-8 -43 -85 0
-9 -57 -85 0
12 -68 -85 0
-6 -73 -85 0
7 -74 -85 0
-33 -66 85 0
32 71 85 0
10 -47 -86 0
-25 -58 -86 0
-17 -65 -86 0
-34 -52 86 0
24 -70 86 0
-23 -43 -87 0
38 53 87 0
-2 62 87 0
-21 71 87 0
-23 51 -88 0
28 -80 -88 0
-38 48 88 0
-28 -55 88 0
-11 -58 88 0
18 -72 88 0
6 -73 88 0
6 -70 -89 0
34 79 -89 0
38 -43 89 0
40 58 89 0
-33 -72 89 0
21 73 89 0
-1 -47 -90 0
26 -58 -90 0
-4 64 90 0
7 58 -91 0
-28 -65 -91 0
-19 -67 -91 0
-10 67 -91 0
36 -68 -91 0
23 47 -92 0
-12 49 -92 0
11 -50 -92 0
-40 -52 -92 0
-2 56 92 0
7 64 92 0
18 64 92 0
13 47 -93 0
26 -49 -93 0
21 -63 -93 0
-20 63 -93 0
33 -77 -93 0
-19 41 93 0
-24 -43 93 0
37 -53 93 0
12 80 93 0
4 64 -94 0
8 -69 -94 0
-13 -76 -94 0
-1 58 94 0
36 70 94 0
-2 -72 94 0
18 78 94 0
-5 49 -95 0
-10 -66 -95 0
-35 69 -95 0
29 76 95 0
18 -57 -96 0
15 -43 96 0
1 -53 96 0
2 71 96 0
6 -61 -97 0
4 64 -97 0
3 -75 -97 0
37 43 97 0
35 -65 97 0
38 -67 97 0
28 -68 97 0
5 52 -98 0
-22 -71 -98 0
12 -75 -98 0
15 75 -98 0
-5 -78 -98 0
-27 -54 98 0
-18 62 98 0
26 -48 -99 0
-10 53 -99 0
25 57 -99 0
26 -64 -99 0
-31 -44 99 0
37 44 99 0
-24 54 99 0
-34 46 -100 0
23 58 -100 0
8 -62 -100 0
-22 67 -100 0
13 -72 -100 0
34 72 -100 0
13 65 100 0
-23 -68 -101 0
-29 -71 -101 0
-5 71 -101 0
-16 -60 101 0
27 -62 101 0
7 -47 102 0
9 -68 102 0
-28 -72 102 0
-8 -74 102 0
21 -47 -103 0
-3 -62 103 0
-36 79 103 0
-38 48 -104 0
8 57 -104 0
38 57 -104 0
-10 61 -104 0
19 -77 -104 0
-13 -43 104 0
19 -46 104 0
-19 -56 104 0
-22 59 104 0
36 71 104 0
-2 79 104 0
34 -70 -105 0
29 46 105 0
-39 -50 105 0
-4 -52 105 0
-10 55 105 0
-29 48 106 0
24 51 106 0
-24 -59 106 0
-13 72 106 0
-13 65 -107 0
8 68 -107 0
28 69 -107 0
26 71 -107 0
-27 -43 107 0
-35 70 107 0
17 43 -108 0
-13 -51 -108 0
10 53 -108 0
27 -56 -108 0
-14 76 108 0
-19 42 -109 0
20 46 -109 0
17 49 -109 0
34 -66 -109 0
-6 45 -110 0
-7 46 -110 0
-5 47 -110 0
29 -79 -110 0
13 41 110 0
-20 -47 110 0
-21 50 110 0
-34 63 110 0
-20 -73 110 0
25 -75 110 0
8 52 -111 0
-6 67 -111 0
39 -44 111 0
11 -55 111 0
2 -41 -112 0
-12 46 -112 0
-25 68 -112 0
-30 73 -112 0
-19 76 -112 0
6 -41 112 0
8 -50 112 0
4 55 112 0
4 -53 -113 0
31 -66 -113 0
-6 76 -113 0
30 -50 113 0
-18 59 113 0
-25 63 113 0
-23 80 113 0
-19 -78 -114 0
-24 -45 114 0
-28 45 114 0
36 53 114 0
21 -72 114 0
-2 80 114 0
12 42 -115 0
-39 41 115 0
17 -44 115 0
-26 -56 115 0
-24 -59 115 0
26 -64 115 0
-37 67 115 0
-32 72 115 0
-33 -76 115 0
-19 -80 115 0
-5 -48 -116 0
-19 -57 -116 0
23 63 -116 0
-9 64 -116 0
-18 -67 -116 0
15 -68 -116 0
40 -69 -116 0
2 -50 116 0
-40 50 116 0
23 -49 -117 0
-28 49 -117 0
37 -50 -117 0
31 -55 -117 0
-18 78 -117 0
25 79 -117 0
-6 68 -118 0
38 45 118 0
-18 -61 118 0
-27 -78 118 0
2 61 -119 0
-31 76 -119 0
-40 43 119 0
-24 -79 119 0
-2 79 119 0
-24 -45 -120 0
-35 -70 -120 0
21 76 -120 0
-24 78 -120 0
38 47 120 0
-16 -50 120 0
-4 56 120 0
